(declare-const n0_7 Bool)
(declare-const n0_8 Bool)
(declare-const n0_6 Bool)
(declare-const n0_5 Bool)
(declare-const n0_4 Bool)
(declare-const n0_3 Bool)
(declare-const n0_2 Bool)
(declare-const n0_1 Bool)
(declare-const n2_7 Bool)
(declare-const n2_8 Bool)
(declare-const n2_6 Bool)
(declare-const n2_5 Bool)
(declare-const n2_4 Bool)
(declare-const n2_3 Bool)
(declare-const n2_2 Bool)
(declare-const n2_1 Bool)
(declare-const n3_7 Bool)
(declare-const n3_8 Bool)
(declare-const n3_6 Bool)
(declare-const n3_5 Bool)
(declare-const n3_4 Bool)
(declare-const n3_3 Bool)
(declare-const n3_2 Bool)
(declare-const n3_1 Bool)
(declare-const n4_7 Bool)
(declare-const n4_8 Bool)
(declare-const n4_6 Bool)
(declare-const n4_5 Bool)
(declare-const n4_4 Bool)
(declare-const n4_3 Bool)
(declare-const n4_2 Bool)
(declare-const n4_1 Bool)
(declare-const n5_7 Bool)
(declare-const n5_8 Bool)
(declare-const n5_6 Bool)
(declare-const n5_5 Bool)
(declare-const n5_4 Bool)
(declare-const n5_3 Bool)
(declare-const n5_2 Bool)
(declare-const n5_1 Bool)
(declare-const n6_7 Bool)
(declare-const n6_8 Bool)
(declare-const n6_6 Bool)
(declare-const n6_5 Bool)
(declare-const n6_4 Bool)
(declare-const n6_3 Bool)
(declare-const n6_2 Bool)
(declare-const n6_1 Bool)
(declare-const n7_7 Bool)
(declare-const n7_8 Bool)
(declare-const n7_6 Bool)
(declare-const n7_5 Bool)
(declare-const n7_4 Bool)
(declare-const n7_3 Bool)
(declare-const n7_2 Bool)
(declare-const n7_1 Bool)
(declare-const n1_8 Bool)
(declare-const n1_7 Bool)
(declare-const n1_6 Bool)
(declare-const n1_5 Bool)
(declare-const n1_4 Bool)
(declare-const n1_3 Bool)
(declare-const n1_2 Bool)
(declare-const n1_1 Bool)
(assert (or (not n0_7 ) (not n0_8 ) ))
(assert (or (not n0_6 ) (not n0_8 ) ))
(assert (or (not n0_6 ) (not n0_7 ) ))
(assert (or (not n0_5 ) (not n0_8 ) ))
(assert (or (not n0_5 ) (not n0_7 ) ))
(assert (or (not n0_5 ) (not n0_6 ) ))
(assert (or (not n0_4 ) (not n0_8 ) ))
(assert (or (not n0_4 ) (not n0_7 ) ))
(assert (or (not n0_4 ) (not n0_6 ) ))
(assert (or (not n0_4 ) (not n0_5 ) ))
(assert (or (not n0_3 ) (not n0_8 ) ))
(assert (or (not n0_3 ) (not n0_7 ) ))
(assert (or (not n0_3 ) (not n0_6 ) ))
(assert (or (not n0_3 ) (not n0_5 ) ))
(assert (or (not n0_3 ) (not n0_4 ) ))
(assert (or (not n0_2 ) (not n0_8 ) ))
(assert (or (not n0_2 ) (not n0_7 ) ))
(assert (or (not n0_2 ) (not n0_6 ) ))
(assert (or (not n0_2 ) (not n0_5 ) ))
(assert (or (not n0_2 ) (not n0_4 ) ))
(assert (or (not n0_2 ) (not n0_3 ) ))
(assert (or (not n0_1 ) (not n0_8 ) ))
(assert (or (not n0_1 ) (not n0_7 ) ))
(assert (or (not n0_1 ) (not n0_6 ) ))
(assert (or (not n0_1 ) (not n0_5 ) ))
(assert (or (not n0_1 ) (not n0_4 ) ))
(assert (or (not n0_1 ) (not n0_3 ) ))
(assert (or (not n0_1 ) (not n0_2 ) ))
(assert (or (not n2_7 ) (not n2_8 ) ))
(assert (or (not n2_6 ) (not n2_8 ) ))
(assert (or (not n2_6 ) (not n2_7 ) ))
(assert (or (not n2_5 ) (not n2_8 ) ))
(assert (or (not n2_5 ) (not n2_7 ) ))
(assert (or (not n2_5 ) (not n2_6 ) ))
(assert (or (not n2_4 ) (not n2_8 ) ))
(assert (or (not n2_4 ) (not n2_7 ) ))
(assert (or (not n2_4 ) (not n2_6 ) ))
(assert (or (not n2_4 ) (not n2_5 ) ))
(assert (or (not n2_3 ) (not n2_8 ) ))
(assert (or (not n2_3 ) (not n2_7 ) ))
(assert (or (not n2_3 ) (not n2_6 ) ))
(assert (or (not n2_3 ) (not n2_5 ) ))
(assert (or (not n2_3 ) (not n2_4 ) ))
(assert (or (not n2_2 ) (not n2_8 ) ))
(assert (or (not n2_2 ) (not n2_7 ) ))
(assert (or (not n2_2 ) (not n2_6 ) ))
(assert (or (not n2_2 ) (not n2_5 ) ))
(assert (or (not n2_2 ) (not n2_4 ) ))
(assert (or (not n2_2 ) (not n2_3 ) ))
(assert (or (not n2_1 ) (not n2_8 ) ))
(assert (or (not n2_1 ) (not n2_7 ) ))
(assert (or (not n2_1 ) (not n2_6 ) ))
(assert (or (not n2_1 ) (not n2_5 ) ))
(assert (or (not n2_1 ) (not n2_4 ) ))
(assert (or (not n2_1 ) (not n2_3 ) ))
(assert (or (not n2_1 ) (not n2_2 ) ))
(assert (or (not n3_7 ) (not n3_8 ) ))
(assert (or (not n3_6 ) (not n3_8 ) ))
(assert (or (not n3_6 ) (not n3_7 ) ))
(assert (or (not n3_5 ) (not n3_8 ) ))
(assert (or (not n3_5 ) (not n3_7 ) ))
(assert (or (not n3_5 ) (not n3_6 ) ))
(assert (or (not n3_4 ) (not n3_8 ) ))
(assert (or (not n3_4 ) (not n3_7 ) ))
(assert (or (not n3_4 ) (not n3_6 ) ))
(assert (or (not n3_4 ) (not n3_5 ) ))
(assert (or (not n3_3 ) (not n3_8 ) ))
(assert (or (not n3_3 ) (not n3_7 ) ))
(assert (or (not n3_3 ) (not n3_6 ) ))
(assert (or (not n3_3 ) (not n3_5 ) ))
(assert (or (not n3_3 ) (not n3_4 ) ))
(assert (or (not n3_2 ) (not n3_8 ) ))
(assert (or (not n3_2 ) (not n3_7 ) ))
(assert (or (not n3_2 ) (not n3_6 ) ))
(assert (or (not n3_2 ) (not n3_5 ) ))
(assert (or (not n3_2 ) (not n3_4 ) ))
(assert (or (not n3_2 ) (not n3_3 ) ))
(assert (or (not n3_1 ) (not n3_8 ) ))
(assert (or (not n3_1 ) (not n3_7 ) ))
(assert (or (not n3_1 ) (not n3_6 ) ))
(assert (or (not n3_1 ) (not n3_5 ) ))
(assert (or (not n3_1 ) (not n3_4 ) ))
(assert (or (not n3_1 ) (not n3_3 ) ))
(assert (or (not n3_1 ) (not n3_2 ) ))
(assert (or (not n4_7 ) (not n4_8 ) ))
(assert (or (not n4_6 ) (not n4_8 ) ))
(assert (or (not n4_6 ) (not n4_7 ) ))
(assert (or (not n4_5 ) (not n4_8 ) ))
(assert (or (not n4_5 ) (not n4_7 ) ))
(assert (or (not n4_5 ) (not n4_6 ) ))
(assert (or (not n4_4 ) (not n4_8 ) ))
(assert (or (not n4_4 ) (not n4_7 ) ))
(assert (or (not n4_4 ) (not n4_6 ) ))
(assert (or (not n4_4 ) (not n4_5 ) ))
(assert (or (not n4_3 ) (not n4_8 ) ))
(assert (or (not n4_3 ) (not n4_7 ) ))
(assert (or (not n4_3 ) (not n4_6 ) ))
(assert (or (not n4_3 ) (not n4_5 ) ))
(assert (or (not n4_3 ) (not n4_4 ) ))
(assert (or (not n4_2 ) (not n4_8 ) ))
(assert (or (not n4_2 ) (not n4_7 ) ))
(assert (or (not n4_2 ) (not n4_6 ) ))
(assert (or (not n4_2 ) (not n4_5 ) ))
(assert (or (not n4_2 ) (not n4_4 ) ))
(assert (or (not n4_2 ) (not n4_3 ) ))
(assert (or (not n4_1 ) (not n4_8 ) ))
(assert (or (not n4_1 ) (not n4_7 ) ))
(assert (or (not n4_1 ) (not n4_6 ) ))
(assert (or (not n4_1 ) (not n4_5 ) ))
(assert (or (not n4_1 ) (not n4_4 ) ))
(assert (or (not n4_1 ) (not n4_3 ) ))
(assert (or (not n4_1 ) (not n4_2 ) ))
(assert (or (not n5_7 ) (not n5_8 ) ))
(assert (or (not n5_6 ) (not n5_8 ) ))
(assert (or (not n5_6 ) (not n5_7 ) ))
(assert (or (not n5_5 ) (not n5_8 ) ))
(assert (or (not n5_5 ) (not n5_7 ) ))
(assert (or (not n5_5 ) (not n5_6 ) ))
(assert (or (not n5_4 ) (not n5_8 ) ))
(assert (or (not n5_4 ) (not n5_7 ) ))
(assert (or (not n5_4 ) (not n5_6 ) ))
(assert (or (not n5_4 ) (not n5_5 ) ))
(assert (or (not n5_3 ) (not n5_8 ) ))
(assert (or (not n5_3 ) (not n5_7 ) ))
(assert (or (not n5_3 ) (not n5_6 ) ))
(assert (or (not n5_3 ) (not n5_5 ) ))
(assert (or (not n5_3 ) (not n5_4 ) ))
(assert (or (not n5_2 ) (not n5_8 ) ))
(assert (or (not n5_2 ) (not n5_7 ) ))
(assert (or (not n5_2 ) (not n5_6 ) ))
(assert (or (not n5_2 ) (not n5_5 ) ))
(assert (or (not n5_2 ) (not n5_4 ) ))
(assert (or (not n5_2 ) (not n5_3 ) ))
(assert (or (not n5_1 ) (not n5_8 ) ))
(assert (or (not n5_1 ) (not n5_7 ) ))
(assert (or (not n5_1 ) (not n5_6 ) ))
(assert (or (not n5_1 ) (not n5_5 ) ))
(assert (or (not n5_1 ) (not n5_4 ) ))
(assert (or (not n5_1 ) (not n5_3 ) ))
(assert (or (not n5_1 ) (not n5_2 ) ))
(assert (or (not n6_7 ) (not n6_8 ) ))
(assert (or (not n6_6 ) (not n6_8 ) ))
(assert (or (not n6_6 ) (not n6_7 ) ))
(assert (or (not n6_5 ) (not n6_8 ) ))
(assert (or (not n6_5 ) (not n6_7 ) ))
(assert (or (not n6_5 ) (not n6_6 ) ))
(assert (or (not n6_4 ) (not n6_8 ) ))
(assert (or (not n6_4 ) (not n6_7 ) ))
(assert (or (not n6_4 ) (not n6_6 ) ))
(assert (or (not n6_4 ) (not n6_5 ) ))
(assert (or (not n6_3 ) (not n6_8 ) ))
(assert (or (not n6_3 ) (not n6_7 ) ))
(assert (or (not n6_3 ) (not n6_6 ) ))
(assert (or (not n6_3 ) (not n6_5 ) ))
(assert (or (not n6_3 ) (not n6_4 ) ))
(assert (or (not n6_2 ) (not n6_8 ) ))
(assert (or (not n6_2 ) (not n6_7 ) ))
(assert (or (not n6_2 ) (not n6_6 ) ))
(assert (or (not n6_2 ) (not n6_5 ) ))
(assert (or (not n6_2 ) (not n6_4 ) ))
(assert (or (not n6_2 ) (not n6_3 ) ))
(assert (or (not n6_1 ) (not n6_8 ) ))
(assert (or (not n6_1 ) (not n6_7 ) ))
(assert (or (not n6_1 ) (not n6_6 ) ))
(assert (or (not n6_1 ) (not n6_5 ) ))
(assert (or (not n6_1 ) (not n6_4 ) ))
(assert (or (not n6_1 ) (not n6_3 ) ))
(assert (or (not n6_1 ) (not n6_2 ) ))
(assert (or (not n7_7 ) (not n7_8 ) ))
(assert (or (not n7_6 ) (not n7_8 ) ))
(assert (or (not n7_6 ) (not n7_7 ) ))
(assert (or (not n7_5 ) (not n7_8 ) ))
(assert (or (not n7_5 ) (not n7_7 ) ))
(assert (or (not n7_5 ) (not n7_6 ) ))
(assert (or (not n7_4 ) (not n7_8 ) ))
(assert (or (not n7_4 ) (not n7_7 ) ))
(assert (or (not n7_4 ) (not n7_6 ) ))
(assert (or (not n7_4 ) (not n7_5 ) ))
(assert (or (not n7_3 ) (not n7_8 ) ))
(assert (or (not n7_3 ) (not n7_7 ) ))
(assert (or (not n7_3 ) (not n7_6 ) ))
(assert (or (not n7_3 ) (not n7_5 ) ))
(assert (or (not n7_3 ) (not n7_4 ) ))
(assert (or (not n7_2 ) (not n7_8 ) ))
(assert (or (not n7_2 ) (not n7_7 ) ))
(assert (or (not n7_2 ) (not n7_6 ) ))
(assert (or (not n7_2 ) (not n7_5 ) ))
(assert (or (not n7_2 ) (not n7_4 ) ))
(assert (or (not n7_2 ) (not n7_3 ) ))
(assert (or (not n7_1 ) (not n7_8 ) ))
(assert (or (not n7_1 ) (not n7_7 ) ))
(assert (or (not n7_1 ) (not n7_6 ) ))
(assert (or (not n7_1 ) (not n7_5 ) ))
(assert (or (not n7_1 ) (not n7_4 ) ))
(assert (or (not n7_1 ) (not n7_3 ) ))
(assert (or (not n7_1 ) (not n7_2 ) ))
(assert (or (not n4_8 ) (not n2_8 ) ))
(assert (or (not n4_7 ) (not n2_7 ) ))
(assert (or (not n4_6 ) (not n2_6 ) ))
(assert (or (not n4_5 ) (not n2_5 ) ))
(assert (or (not n4_4 ) (not n2_4 ) ))
(assert (or (not n4_3 ) (not n2_3 ) ))
(assert (or (not n4_2 ) (not n2_2 ) ))
(assert (or (not n4_1 ) (not n2_1 ) ))
(assert (or (not n0_8 ) (not n4_8 ) ))
(assert (or (not n0_7 ) (not n4_7 ) ))
(assert (or (not n0_6 ) (not n4_6 ) ))
(assert (or (not n0_5 ) (not n4_5 ) ))
(assert (or (not n0_4 ) (not n4_4 ) ))
(assert (or (not n0_3 ) (not n4_3 ) ))
(assert (or (not n0_2 ) (not n4_2 ) ))
(assert (or (not n0_1 ) (not n4_1 ) ))
(assert (or (not n6_8 ) (not n0_8 ) ))
(assert (or (not n6_7 ) (not n0_7 ) ))
(assert (or (not n6_6 ) (not n0_6 ) ))
(assert (or (not n6_5 ) (not n0_5 ) ))
(assert (or (not n6_4 ) (not n0_4 ) ))
(assert (or (not n6_3 ) (not n0_3 ) ))
(assert (or (not n6_2 ) (not n0_2 ) ))
(assert (or (not n6_1 ) (not n0_1 ) ))
(assert (or (not n2_8 ) (not n6_8 ) ))
(assert (or (not n2_7 ) (not n6_7 ) ))
(assert (or (not n2_6 ) (not n6_6 ) ))
(assert (or (not n2_5 ) (not n6_5 ) ))
(assert (or (not n2_4 ) (not n6_4 ) ))
(assert (or (not n2_3 ) (not n6_3 ) ))
(assert (or (not n2_2 ) (not n6_2 ) ))
(assert (or (not n2_1 ) (not n6_1 ) ))
(assert (or (not n5_8 ) (not n2_8 ) ))
(assert (or (not n5_7 ) (not n2_7 ) ))
(assert (or (not n5_6 ) (not n2_6 ) ))
(assert (or (not n5_5 ) (not n2_5 ) ))
(assert (or (not n5_4 ) (not n2_4 ) ))
(assert (or (not n5_3 ) (not n2_3 ) ))
(assert (or (not n5_2 ) (not n2_2 ) ))
(assert (or (not n5_1 ) (not n2_1 ) ))
(assert (or (not n5_8 ) (not n6_8 ) ))
(assert (or (not n5_7 ) (not n6_7 ) ))
(assert (or (not n5_6 ) (not n6_6 ) ))
(assert (or (not n5_5 ) (not n6_5 ) ))
(assert (or (not n5_4 ) (not n6_4 ) ))
(assert (or (not n5_3 ) (not n6_3 ) ))
(assert (or (not n5_2 ) (not n6_2 ) ))
(assert (or (not n5_1 ) (not n6_1 ) ))
(assert (or (not n5_8 ) (not n0_8 ) ))
(assert (or (not n5_7 ) (not n0_7 ) ))
(assert (or (not n5_6 ) (not n0_6 ) ))
(assert (or (not n5_5 ) (not n0_5 ) ))
(assert (or (not n5_4 ) (not n0_4 ) ))
(assert (or (not n5_3 ) (not n0_3 ) ))
(assert (or (not n5_2 ) (not n0_2 ) ))
(assert (or (not n5_1 ) (not n0_1 ) ))
(assert (or (not n2_8 ) (not n0_8 ) ))
(assert (or (not n2_7 ) (not n0_7 ) ))
(assert (or (not n2_6 ) (not n0_6 ) ))
(assert (or (not n2_5 ) (not n0_5 ) ))
(assert (or (not n2_4 ) (not n0_4 ) ))
(assert (or (not n2_3 ) (not n0_3 ) ))
(assert (or (not n2_2 ) (not n0_2 ) ))
(assert (or (not n2_1 ) (not n0_1 ) ))
(assert (or (not n4_8 ) (not n5_8 ) ))
(assert (or (not n4_7 ) (not n5_7 ) ))
(assert (or (not n4_6 ) (not n5_6 ) ))
(assert (or (not n4_5 ) (not n5_5 ) ))
(assert (or (not n4_4 ) (not n5_4 ) ))
(assert (or (not n4_3 ) (not n5_3 ) ))
(assert (or (not n4_2 ) (not n5_2 ) ))
(assert (or (not n4_1 ) (not n5_1 ) ))
(assert (or (not n6_8 ) (not n4_8 ) ))
(assert (or (not n6_7 ) (not n4_7 ) ))
(assert (or (not n6_6 ) (not n4_6 ) ))
(assert (or (not n6_5 ) (not n4_5 ) ))
(assert (or (not n6_4 ) (not n4_4 ) ))
(assert (or (not n6_3 ) (not n4_3 ) ))
(assert (or (not n6_2 ) (not n4_2 ) ))
(assert (or (not n6_1 ) (not n4_1 ) ))
(assert (or (not n2_8 ) (not n3_8 ) ))
(assert (or (not n2_7 ) (not n3_7 ) ))
(assert (or (not n2_6 ) (not n3_6 ) ))
(assert (or (not n2_5 ) (not n3_5 ) ))
(assert (or (not n2_4 ) (not n3_4 ) ))
(assert (or (not n2_3 ) (not n3_3 ) ))
(assert (or (not n2_2 ) (not n3_2 ) ))
(assert (or (not n2_1 ) (not n3_1 ) ))
(assert (or (not n2_8 ) (not n1_8 ) ))
(assert (or (not n2_7 ) (not n1_7 ) ))
(assert (or (not n2_6 ) (not n1_6 ) ))
(assert (or (not n2_5 ) (not n1_5 ) ))
(assert (or (not n2_4 ) (not n1_4 ) ))
(assert (or (not n2_3 ) (not n1_3 ) ))
(assert (or (not n2_2 ) (not n1_2 ) ))
(assert (or (not n2_1 ) (not n1_1 ) ))
(assert (or (not n6_8 ) (not n1_8 ) ))
(assert (or (not n6_7 ) (not n1_7 ) ))
(assert (or (not n6_6 ) (not n1_6 ) ))
(assert (or (not n6_5 ) (not n1_5 ) ))
(assert (or (not n6_4 ) (not n1_4 ) ))
(assert (or (not n6_3 ) (not n1_3 ) ))
(assert (or (not n6_2 ) (not n1_2 ) ))
(assert (or (not n6_1 ) (not n1_1 ) ))
(assert (or (not n3_8 ) (not n7_8 ) ))
(assert (or (not n3_7 ) (not n7_7 ) ))
(assert (or (not n3_6 ) (not n7_6 ) ))
(assert (or (not n3_5 ) (not n7_5 ) ))
(assert (or (not n3_4 ) (not n7_4 ) ))
(assert (or (not n3_3 ) (not n7_3 ) ))
(assert (or (not n3_2 ) (not n7_2 ) ))
(assert (or (not n3_1 ) (not n7_1 ) ))
(assert (or (not n2_8 ) (not n7_8 ) ))
(assert (or (not n2_7 ) (not n7_7 ) ))
(assert (or (not n2_6 ) (not n7_6 ) ))
(assert (or (not n2_5 ) (not n7_5 ) ))
(assert (or (not n2_4 ) (not n7_4 ) ))
(assert (or (not n2_3 ) (not n7_3 ) ))
(assert (or (not n2_2 ) (not n7_2 ) ))
(assert (or (not n2_1 ) (not n7_1 ) ))
(assert (or (not n4_8 ) (not n7_8 ) ))
(assert (or (not n4_7 ) (not n7_7 ) ))
(assert (or (not n4_6 ) (not n7_6 ) ))
(assert (or (not n4_5 ) (not n7_5 ) ))
(assert (or (not n4_4 ) (not n7_4 ) ))
(assert (or (not n4_3 ) (not n7_3 ) ))
(assert (or (not n4_2 ) (not n7_2 ) ))
(assert (or (not n4_1 ) (not n7_1 ) ))
(assert (or (not n0_8 ) (not n1_8 ) ))
(assert (or (not n0_7 ) (not n1_7 ) ))
(assert (or (not n0_6 ) (not n1_6 ) ))
(assert (or (not n0_5 ) (not n1_5 ) ))
(assert (or (not n0_4 ) (not n1_4 ) ))
(assert (or (not n0_3 ) (not n1_3 ) ))
(assert (or (not n0_2 ) (not n1_2 ) ))
(assert (or (not n0_1 ) (not n1_1 ) ))
(assert (or (not n5_8 ) (not n7_8 ) ))
(assert (or (not n5_7 ) (not n7_7 ) ))
(assert (or (not n5_6 ) (not n7_6 ) ))
(assert (or (not n5_5 ) (not n7_5 ) ))
(assert (or (not n5_4 ) (not n7_4 ) ))
(assert (or (not n5_3 ) (not n7_3 ) ))
(assert (or (not n5_2 ) (not n7_2 ) ))
(assert (or (not n5_1 ) (not n7_1 ) ))
(assert (or (not n6_8 ) (not n7_8 ) ))
(assert (or (not n6_7 ) (not n7_7 ) ))
(assert (or (not n6_6 ) (not n7_6 ) ))
(assert (or (not n6_5 ) (not n7_5 ) ))
(assert (or (not n6_4 ) (not n7_4 ) ))
(assert (or (not n6_3 ) (not n7_3 ) ))
(assert (or (not n6_2 ) (not n7_2 ) ))
(assert (or (not n6_1 ) (not n7_1 ) ))
(assert (or (not n3_8 ) (not n0_8 ) ))
(assert (or (not n3_7 ) (not n0_7 ) ))
(assert (or (not n3_6 ) (not n0_6 ) ))
(assert (or (not n3_5 ) (not n0_5 ) ))
(assert (or (not n3_4 ) (not n0_4 ) ))
(assert (or (not n3_3 ) (not n0_3 ) ))
(assert (or (not n3_2 ) (not n0_2 ) ))
(assert (or (not n3_1 ) (not n0_1 ) ))
(assert (or (not n3_8 ) (not n6_8 ) ))
(assert (or (not n3_7 ) (not n6_7 ) ))
(assert (or (not n3_6 ) (not n6_6 ) ))
(assert (or (not n3_5 ) (not n6_5 ) ))
(assert (or (not n3_4 ) (not n6_4 ) ))
(assert (or (not n3_3 ) (not n6_3 ) ))
(assert (or (not n3_2 ) (not n6_2 ) ))
(assert (or (not n3_1 ) (not n6_1 ) ))
(assert (or (not n4_8 ) (not n3_8 ) ))
(assert (or (not n4_7 ) (not n3_7 ) ))
(assert (or (not n4_6 ) (not n3_6 ) ))
(assert (or (not n4_5 ) (not n3_5 ) ))
(assert (or (not n4_4 ) (not n3_4 ) ))
(assert (or (not n4_3 ) (not n3_3 ) ))
(assert (or (not n4_2 ) (not n3_2 ) ))
(assert (or (not n4_1 ) (not n3_1 ) ))
(assert (or (not n7_8 ) (not n0_8 ) ))
(assert (or (not n7_7 ) (not n0_7 ) ))
(assert (or (not n7_6 ) (not n0_6 ) ))
(assert (or (not n7_5 ) (not n0_5 ) ))
(assert (or (not n7_4 ) (not n0_4 ) ))
(assert (or (not n7_3 ) (not n0_3 ) ))
(assert (or (not n7_2 ) (not n0_2 ) ))
(assert (or (not n7_1 ) (not n0_1 ) ))
(assert (or (not n5_8 ) (not n3_8 ) ))
(assert (or (not n5_7 ) (not n3_7 ) ))
(assert (or (not n5_6 ) (not n3_6 ) ))
(assert (or (not n5_5 ) (not n3_5 ) ))
(assert (or (not n5_4 ) (not n3_4 ) ))
(assert (or (not n5_3 ) (not n3_3 ) ))
(assert (or (not n5_2 ) (not n3_2 ) ))
(assert (or (not n5_1 ) (not n3_1 ) ))
(assert (or (not n1_8 ) (not n5_8 ) ))
(assert (or (not n1_7 ) (not n5_7 ) ))
(assert (or (not n1_6 ) (not n5_6 ) ))
(assert (or (not n1_5 ) (not n5_5 ) ))
(assert (or (not n1_4 ) (not n5_4 ) ))
(assert (or (not n1_3 ) (not n5_3 ) ))
(assert (or (not n1_2 ) (not n5_2 ) ))
(assert (or (not n1_1 ) (not n5_1 ) ))
(assert (or (not n3_8 ) (not n1_8 ) ))
(assert (or (not n3_7 ) (not n1_7 ) ))
(assert (or (not n3_6 ) (not n1_6 ) ))
(assert (or (not n3_5 ) (not n1_5 ) ))
(assert (or (not n3_4 ) (not n1_4 ) ))
(assert (or (not n3_3 ) (not n1_3 ) ))
(assert (or (not n3_2 ) (not n1_2 ) ))
(assert (or (not n3_1 ) (not n1_1 ) ))
(assert (or (not n7_8 ) (not n1_8 ) ))
(assert (or (not n7_7 ) (not n1_7 ) ))
(assert (or (not n7_6 ) (not n1_6 ) ))
(assert (or (not n7_5 ) (not n1_5 ) ))
(assert (or (not n7_4 ) (not n1_4 ) ))
(assert (or (not n7_3 ) (not n1_3 ) ))
(assert (or (not n7_2 ) (not n1_2 ) ))
(assert (or (not n7_1 ) (not n1_1 ) ))
(assert (or (not n1_8 ) (not n4_8 ) ))
(assert (or (not n1_7 ) (not n4_7 ) ))
(assert (or (not n1_6 ) (not n4_6 ) ))
(assert (or (not n1_5 ) (not n4_5 ) ))
(assert (or (not n1_4 ) (not n4_4 ) ))
(assert (or (not n1_3 ) (not n4_3 ) ))
(assert (or (not n1_2 ) (not n4_2 ) ))
(assert (or (not n1_1 ) (not n4_1 ) ))
(assert (or n7_8 n6_8 n5_8 n4_8 n3_8 n2_8 n1_8 n0_8 ))
(assert (or n7_7 n6_7 n5_7 n4_7 n3_7 n2_7 n1_7 n0_7 ))
(assert (or n7_6 n6_6 n5_6 n4_6 n3_6 n2_6 n1_6 n0_6 ))
(assert (or n7_5 n6_5 n5_5 n4_5 n3_5 n2_5 n1_5 n0_5 ))
(assert (or n7_4 n6_4 n5_4 n4_4 n3_4 n2_4 n1_4 n0_4 ))
(assert (or n7_3 n6_3 n5_3 n4_3 n3_3 n2_3 n1_3 n0_3 ))
(assert (or n7_2 n6_2 n5_2 n4_2 n3_2 n2_2 n1_2 n0_2 ))
(assert (or n7_1 n6_1 n5_1 n4_1 n3_1 n2_1 n1_1 n0_1 ))
(assert (or (not n1_7 ) (not n1_8 ) ))
(assert (or (not n1_6 ) (not n1_8 ) ))
(assert (or (not n1_6 ) (not n1_7 ) ))
(assert (or (not n1_5 ) (not n1_8 ) ))
(assert (or (not n1_5 ) (not n1_7 ) ))
(assert (or (not n1_5 ) (not n1_6 ) ))
(assert (or (not n1_4 ) (not n1_8 ) ))
(assert (or (not n1_4 ) (not n1_7 ) ))
(assert (or (not n1_4 ) (not n1_6 ) ))
(assert (or (not n1_4 ) (not n1_5 ) ))
(assert (or (not n1_3 ) (not n1_8 ) ))
(assert (or (not n1_3 ) (not n1_7 ) ))
(assert (or (not n1_3 ) (not n1_6 ) ))
(assert (or (not n1_3 ) (not n1_5 ) ))
(assert (or (not n1_3 ) (not n1_4 ) ))
(assert (or (not n1_2 ) (not n1_8 ) ))
(assert (or (not n1_2 ) (not n1_7 ) ))
(assert (or (not n1_2 ) (not n1_6 ) ))
(assert (or (not n1_2 ) (not n1_5 ) ))
(assert (or (not n1_2 ) (not n1_4 ) ))
(assert (or (not n1_2 ) (not n1_3 ) ))
(assert (or (not n1_1 ) (not n1_8 ) ))
(assert (or (not n1_1 ) (not n1_7 ) ))
(assert (or (not n1_1 ) (not n1_6 ) ))
(assert (or (not n1_1 ) (not n1_5 ) ))
(assert (or (not n1_1 ) (not n1_4 ) ))
(assert (or (not n1_1 ) (not n1_3 ) ))
(assert (or (not n1_1 ) (not n1_2 ) ))
(check-sat)
(get-model)
